NAME: instance_11
TYPE: TSP
COMMENT: 11-city problem
DIMENSION: 11
EDGE_WEIGHT_TYPE: EUC_2D
NODE_COORD_SECTION
0 885 764
1 540 335
2 299 918
3 506 363
4 808 88
5 698 813
6 695 698
7 942 432
8 350 639
9 338 784
10 275 565
EOF
